CMD:
./solvers/bin/cadical --plain --no-reduce -t 1600 ./data/cnfs//irstdme6/irstdme6.84.cnf

c --- [ banner ] -------------------------------------------------------------
c 
c CaDiCaL SAT Solver
c Copyright (c) 2016-2024
c A. Biere, M. Fleury, N. Froleyks, K. Fazekas, F. Pollitt, T. Faller
c JKU Linz, University of Freiburg, TU Wien
c 
c Version 2.1.3 5296d3d2a9bf48c154ab2acb5e44625776d821bf
c g++ (Gentoo 12.3.1_p20230526 p2) 12.3.1 20230526 -Wall -Wextra -O3 -DNDEBUG
c Sat Aug 9 07:26:21 PDT 2025 Linux cedar2.int.cedar.computecanada.ca 5.14.0-362.24.2.el9_3.x86_64 x86_64
c 
c --- [ limit ] --------------------------------------------------------------
c 
c setting time limit to 1600 seconds real time (due to '-t 1600')
c 
c --- [ parsing input ] ------------------------------------------------------
c 
c reading DIMACS file from './data/cnfs//irstdme6/irstdme6.84.cnf'
c opening file to read './data/cnfs//irstdme6/irstdme6.84.cnf'
c found 'p cnf 164692 437315' header
c parsed 437315 clauses in 0.06 seconds process time
c 
c --- [ options ] ------------------------------------------------------------
c 
c   --compact=false                (different from default 'true')
c   --decompose=false              (different from default 'true')
c   --deduplicate=false            (different from default 'true')
c   --elim=false                   (different from default 'true')
c   --probe=false                  (different from default 'true')
c   --reduce=false                 (different from default 'true')
c   --subsume=false                (different from default 'true')
c   --ternary=false                (different from default 'true')
c   --transred=false               (different from default 'true')
c   --vivify=false                 (different from default 'true')
c 
c --- [ solving ] ------------------------------------------------------------
c 
c time measured in process time since initialization
c 
c  seconds  reductions  redundant  irredundant
c         MB    restarts       trail       variables
c          level   conflicts       glue          remaining
c 
c *  0.07 74  0 0   0    0    0  0% 0 433198 160156 97%
c {  0.09 78  0 0   0    0    0  0% 0 433198 160156 97%
c i  0.16 78 8411 0   0  176   96 48% 1 433198 160153 97%
c i  0.16 78 8616 0   0  182   96 49% 1 433198 160146 97%
c i  0.16 78 8666 0   0  183   96 50% 1 433198 160145 97%
c i  0.16 78 8991 0   0  191  102 52% 1 433198 160144 97%
c i  0.16 78 9079 0   0  193  103 52% 1 433198 160143 97%
c i  0.16 78 9249 0   0  197  106 53% 1 433198 160140 97%
c i  0.16 78 9289 0   0  198  106 53% 1 433198 160137 97%
c i  0.16 78 9330 0   0  199  106 53% 1 433198 160133 97%
c i  0.16 78 9506 0   1  208  114 54% 1 433198 160127 97%
c i  0.16 78 9414 0   2  210  115 54% 1 433198 160126 97%
c i  0.16 78 9369 0   2  211  115 54% 1 433198 160124 97%
c i  0.16 78 9324 0   2  212  115 53% 1 433198 160123 97%
c i  0.16 78 9280 0   2  213  115 53% 1 433198 160122 97%
c i  0.16 78 9192 0   2  215  116 53% 1 433198 160121 97%
c i  0.18 78 5088 0   4  403  303 48% 1 433198 160112 97%
c i  0.18 78 5053 0   4  406  305 48% 1 433198 160105 97%
c i  0.18 78 5040 0   5  407  305 47% 1 433198 160104 97%
c i  0.18 78 4933 0   6  416  313 47% 1 433198 160103 97%
c 
c  seconds    reductions  redundant  irredundant
c         MB      restarts       trail       variables
c           level    conflicts       glue          remaining
c 
c i  0.18 78 4921 0   7  417  313 47% 1 433198 160100 97%
c i  0.18 78 4909 0   7  418  313 46% 1 433198 160099 97%
c i  0.18 78 4897 0   7  419  313 46% 1 433198 160097 97%
c i  0.18 78 4873 0   8  421  314 46% 1 433198 160096 97%
c i  0.18 78 4862 0   8  422  314 46% 1 433198 160094 97%
c i  0.18 78 4827 0   8  425  316 46% 1 433198 160093 97%
c i  0.18 78 4816 0   8  426  316 46% 1 433198 160092 97%
c i  0.18 78 4654 0  11  441  329 44% 1 433198 160090 97%
c i  0.18 78 4399 0  19  467  354 42% 1 433198 160087 97%
c i  0.18 78 4389 0  19  468  354 42% 1 433198 160084 97%
c i  0.18 78 4380 0  19  469  354 42% 1 433198 160083 97%
c i  0.18 78 4371 0  20  470  354 42% 1 433198 160073 97%
c i  0.18 78 4343 0  20  473  356 42% 1 433198 160072 97%
c i  0.18 78 4261 0  23  482  364 41% 1 433198 160071 97%
c i  0.18 78 4226 0  24  486  367 41% 1 433198 160068 97%
c i  0.18 78 4217 0  25  487  367 41% 1 433198 160066 97%
c i  0.18 78 4209 0  25  488  367 41% 1 433198 160065 97%
c i  0.18 78 4191 0  26  490  368 41% 1 433198 160064 97%
c i  0.18 78 4183 0  26  491  368 41% 1 433198 160062 97%
c i  0.18 78 4174 0  26  492  368 41% 1 433198 160054 97%
c 
c  seconds    reductions  redundant  irredundant
c         MB      restarts       trail       variables
c           level    conflicts       glue          remaining
c 
c i  0.20 78 4041 0  32  509  383 40% 1 433198 160053 97%
c i  0.24 78 3679 0  53  573  446 40% 1 433198 160050 97%
c i  0.29 78 3383 0  77  644  516 41% 1 433198 160049 97%
c i  0.29 78 3345 0  79  652  523 40% 1 433198 160048 97%
... skipped 16812 lines ...
v -164196 -164197 -164198 164199 -164200 164201 164202 -164203 -164204 164205
v -164206 -164207 164208 -164209 164210 -164211 -164212 164213 -164214 164215
v 164216 -164217 -164218 164219 -164220 -164221 164222 164223 -164224 164225
v -164226 -164227 164228 -164229 -164230 164231 164232 -164233 -164234 164235
v -164236 -164237 164238 -164239 164240 -164241 -164242 164243 -164244 -164245
v -164246 164247 -164248 164249 -164250 -164251 164252 -164253 164254 -164255
v -164256 164257 -164258 164259 -164260 -164261 -164262 -164263 164264 164265
v 164266 -164267 -164268 164269 -164270 -164271 164272 -164273 -164274 164275
v -164276 -164277 164278 -164279 164280 -164281 -164282 -164283 164284 164285
v -164286 164287 -164288 -164289 164290 -164291 -164292 164293 164294 -164295
v -164296 164297 -164298 164299 -164300 -164301 164302 -164303 164304 -164305
v -164306 164307 -164308 164309 164310 -164311 164312 -164313 -164314 -164315
v 164316 164317 -164318 -164319 -164320 164321 -164322 164323 -164324 -164325
v 164326 164327 -164328 -164329 164330 -164331 -164332 164333 164334 164335
v -164336 -164337 164338 -164339 -164340 164341 164342 -164343 164344 -164345
v -164346 -164347 164348 164349 -164350 164351 -164352 -164353 -164354 -164355
v 164356 -164357 -164358 164359 164360 -164361 -164362 164363 -164364 -164365
v 164366 -164367 164368 -164369 -164370 164371 -164372 164373 164374 -164375
v -164376 164377 -164378 -164379 164380 164381 -164382 164383 -164384 -164385
v 164386 -164387 -164388 164389 -164390 164391 -164392 164393 -164394 -164395
v 164396 -164397 -164398 164399 -164400 -164401 164402 -164403 164404 -164405
v -164406 164407 -164408 -164409 164410 -164411 164412 -164413 -164414 -164415
v 164416 -164417 -164418 164419 -164420 -164421 164422 164423 -164424 164425
v -164426 -164427 -164428 164429 -164430 -164431 164432 -164433 -164434 164435
v 164436 -164437 164438 -164439 -164440 -164441 164442 164443 -164444 -164445
v 164446 -164447 -164448 -164449 164450 164451 -164452 -164453 164454 -164455
v -164456 -164457 164458 164459 -164460 -164461 164462 -164463 -164464 164465
v -164466 164467 164468 -164469 -164470 164471 -164472 164473 -164474 -164475
v 164476 164477 -164478 -164479 164480 -164481 -164482 164483 164484 -164485
v -164486 164487 -164488 164489 -164490 -164491 164492 -164493 164494 -164495
v -164496 -164497 164498 164499 -164500 -164501 -164502 164503 -164504 164505
v -164506 -164507 164508 -164509 164510 -164511 -164512 -164513 -164514 164515
v -164516 164517 -164518 164519 -164520 -164521 -164522 164523 164524 -164525
v 164526 -164527 -164528 164529 -164530 164531 -164532 164533 -164534 -164535
v 164536 -164537 -164538 164539 -164540 164541 -164542 -164543 164544 -164545
v -164546 164547 -164548 164549 -164550 -164551 -164552 164553 164554 164555
v 164556 -164557 -164558 -164559 -164560 164561 -164562 -164563 164564 -164565
v -164566 164567 164568 -164569 164570 -164571 -164572 -164573 164574 -164575
v -164576 164577 -164578 -164579 164580 164581 -164582 164583 -164584 -164585
v -164586 164587 -164588 -164589 164590 -164591 -164592 164593 164594 -164595
v 164596 -164597 -164598 -164599 164600 164601 -164602 -164603 164604 -164605
v -164606 -164607 164608 164609 -164610 -164611 164612 -164613 -164614 -164615
v 164616 164617 -164618 -164619 164620 -164621 -164622 164623 -164624 164625
v 164626 -164627 -164628 164629 -164630 164631 -164632 -164633 164634 -164635
v 164636 -164637 -164638 -164639 164640 164641 -164642 164643 -164644 -164645
v 164646 -164647 -164648 164649 164650 164651 -164652 -164653 164654 -164655
v -164656 164657 164658 -164659 -164660 164661 -164662 164663 -164664 -164665
v 164666 164667 164668 164669 -164670 164671 -164672 164673 -164674 164675
v -164676 164677 -164678 164679 -164680 164681 -164682 164683 -164684 164685
v -164686 164687 -164688 -164689 -164690 164691 -164692 0
c 
c --- [ run-time profiling ] -------------------------------------------------
c 
c process time taken by individual solving procedures
c (percentage relative to process time for solving)
c 
c         5.79  100.00% search
c         2.80   48.31% unstable
c         2.73   47.20% stable
c         0.23    4.02% walk
c         0.06    1.12% parse
c         0.03    0.47% lucky
c         0.00    0.00% simplify
c   =================================
c         5.79   98.75% solve
c 
c last line shows process time for solving
c (percentage relative to total process time)
c 
c --- [ statistics ] ---------------------------------------------------------
c 
c chronological:             35452        53.69 %  of conflicts
c conflicts:                 66029     11404.94    per second
c decisions:                868490    150010.94    per second
c fixed:                     10605         6.44 %  of all variables
c learned:                   63813        96.64 %  per conflict
c learned_lits:            1430210       100.00 %  learned literals
c minimized:                     0         0.00 %  learned literals
c shrunken:                 143031        10.00 %  learned literals
c minishrunken:             206960        14.47 %  learned literals
c otfs:                        708         1.07 %  of conflict
c propagations:          105473127        18.22 M  per second
c rephased:                     11      6002.64    interval
c restarts:                   3935        16.78    interval
c stabilizing:                   3        63.59 %  of conflicts
c subsumed:                   3174         0.64 %  of all clauses
c strengthened:                676         0.14 %  of all clauses
c walked:                        2     33014.50    interval
c 
c seconds are measured in process time for solving
c 
c --- [ resources ] ----------------------------------------------------------
c 
c total process time since initialization:         5.86    seconds
c total real time since initialization:            5.90    seconds
c maximum resident set size of process:           96.02    MB
c 
c --- [ shutting down ] ------------------------------------------------------
c 
c exit 10
